# LAMMPS input for ADP verification
# Generate reference data for comparison with GPUMD

# Initialize
units metal
dimension 3
boundary p p p
atom_style atomic
read_data fcc_ni.data

# Use the same ADP potential
pair_style adp
pair_coeff * * Ni.adp Ni

# Set same temperature as GPUMD test
velocity all create 300.0 12345

# Run and dump the same configuration
timestep 0.001
fix 1 all nve

# Compute per-atom potential energy
compute pe all pe/atom

# Dump forces, energies for first step
dump 1 all custom 1 lammps_adp_reference.dump id type x y z fx fy fz c_pe

# Run for 1 step to match GPUMD test
run 1

# Additional information
print "LAMMPS ADP reference data generated"
print "Total energy: $(etotal)"
print "Potential energy: $(pe)"
print "Kinetic energy: $(ke)"
